words_hard_train/9741.qaiger
aag 178 24 0 1 154
2
4
12
14
18
22
26
30
34
44
46
50
52
56
60
68
74
88
96
108
124
140
156
172
356
6 2 4
8 3 5
10 7 9
16 13 15
20 16 19
24 20 23
28 24 27
32 28 31
36 32 35
38 10 37
40 11 36
42 39 41
48 45 47
54 50 52
58 55 57
62 58 61
64 48 62
66 65 52
70 67 69
72 70 52
76 72 75
78 43 76
80 42 77
82 79 81
84 12 14
86 85 17
90 87 89
92 86 88
94 91 93
98 96 12
100 94 98
102 101 93
104 17 18
106 105 21
110 107 109
112 106 108
114 111 113
116 103 114
118 117 113
120 21 22
122 121 25
126 123 125
128 122 124
130 127 129
132 119 130
134 133 129
136 25 26
138 137 29
142 139 141
144 138 140
146 143 145
148 135 146
150 149 145
152 29 30
154 153 33
158 155 157
160 154 156
162 159 161
164 151 162
166 165 161
168 33 34
170 169 37
174 171 173
176 170 172
178 175 177
180 166 179
182 167 178
184 181 183
186 150 163
188 187 165
190 134 147
192 191 149
194 118 131
196 195 133
198 95 99
200 199 101
202 97 13
204 198 203
206 201 205
208 102 115
210 209 117
212 206 211
214 197 212
216 193 214
218 189 216
220 185 218
222 83 220
224 82 221
226 223 225
228 183 177
230 226 229
232 227 228
234 231 233
236 63 52
238 237 45
240 239 52
242 241 47
244 240 46
246 243 245
248 192 215
250 249 217
252 247 251
254 246 250
256 253 255
258 66 68
260 259 71
262 188 217
264 263 219
266 260 264
268 256 267
270 71 52
272 271 74
274 270 75
276 273 275
278 184 219
280 279 221
282 276 281
284 268 283
286 236 44
288 287 239
290 196 213
292 291 215
294 289 293
296 288 292
298 295 297
300 59 52
302 301 60
304 300 61
306 303 305
308 207 210
310 309 213
312 307 310
314 306 311
316 313 315
318 203 99
320 319 51
322 318 50
324 321 323
326 318 205
328 327 207
330 54 56
332 331 59
334 329 332
336 328 333
338 335 337
340 324 339
342 316 340
344 298 342
346 261 265
348 344 347
350 277 280
352 348 351
354 284 352
356 235 354
i0 1 x1[7]
i1 1 x2[7]
i2 1 x2[0]
i3 1 x2[1]
i4 1 x2[2]
i5 1 x2[3]
i6 1 x2[4]
i7 1 x2[5]
i8 1 x2[6]
i9 2 y1[3]
i10 2 y1[4]
i11 2 y1[0]
i12 2 y1[7]
i13 2 y1[1]
i14 2 y1[2]
i15 2 y1[5]
i16 2 y1[6]
i17 1 x1[1]
i18 1 x1[0]
i19 1 x1[2]
i20 1 x1[3]
i21 1 x1[4]
i22 1 x1[5]
i23 1 x1[6]
o0 bool[0]
c
simplified
  ==
    abs
      2 y1
    subtract
      subtract
        1 x1
        1 x2
      1
