words_hard_train/9741.qaiger.qdimacs
p cnf 178 463
a 1 2 6 7 70 9 11 44 13 78 15 48 17 54 86 62 0
e 3 4 5 8 10 12 14 16 18 19 20 21 22 23 24 25 26 27 28 29 30 31 32 33 34 35 36 37 38 39 40 41 42 43 45 46 47 49 50 51 52 53 55 56 57 58 59 60 61 63 64 65 66 67 68 69 71 72 73 74 75 76 77 79 80 81 82 83 84 85 87 88 89 90 91 92 93 94 95 96 97 98 99 100 101 102 103 104 105 106 107 108 109 110 111 112 113 114 115 116 117 118 119 120 121 122 123 124 125 126 127 128 129 130 131 132 133 134 135 136 137 138 139 140 141 142 143 144 145 146 147 148 149 150 151 152 153 154 155 156 157 158 159 160 161 162 163 164 165 166 167 168 169 170 171 172 173 174 175 176 177 178 0
-1 -2 3 0
1 -3 0
2 -3 0
1 2 4 0
-1 -4 0
-2 -4 0
3 4 5 0
-3 -5 0
-4 -5 0
6 7 8 0
-6 -8 0
-7 -8 0
-8 9 10 0
8 -10 0
-9 -10 0
-10 11 12 0
10 -12 0
-11 -12 0
-12 13 14 0
12 -14 0
-13 -14 0
-14 15 16 0
14 -16 0
-15 -16 0
-16 17 18 0
16 -18 0
-17 -18 0
-5 18 19 0
5 -19 0
-18 -19 0
5 -18 20 0
-5 -20 0
18 -20 0
19 20 21 0
-19 -21 0
-20 -21 0
22 23 24 0
-22 -24 0
-23 -24 0
-25 -26 27 0
25 -27 0
26 -27 0
27 28 29 0
-27 -29 0
-28 -29 0
-29 30 31 0
29 -31 0
-30 -31 0
-24 -31 32 0
24 -32 0
31 -32 0
32 -26 33 0
-32 -33 0
26 -33 0
33 34 35 0
-33 -35 0
-34 -35 0
-35 -26 36 0
35 -36 0
26 -36 0
-36 37 38 0
36 -38 0
-37 -38 0
21 -38 39 0
-21 -39 0
38 -39 0
-21 38 40 0
21 -40 0
-38 -40 0
39 40 41 0
-39 -41 0
-40 -41 0
-6 -7 42 0
6 -42 0
7 -42 0
42 8 43 0
-42 -43 0
-8 -43 0
43 44 45 0
-43 -45 0
-44 -45 0
-43 -44 46 0
43 -46 0
44 -46 0
45 46 47 0
-45 -47 0
-46 -47 0
-48 -6 49 0
48 -49 0
6 -49 0
-47 -49 50 0
47 -50 0
49 -50 0
50 46 51 0
-50 -51 0
-46 -51 0
8 -9 52 0
-8 -52 0
9 -52 0
52 10 53 0
-52 -53 0
-10 -53 0
53 54 55 0
-53 -55 0
-54 -55 0
-53 -54 56 0
53 -56 0
54 -56 0
55 56 57 0
-55 -57 0
-56 -57 0
51 -57 58 0
-51 -58 0
57 -58 0
58 56 59 0
-58 -59 0
-56 -59 0
10 -11 60 0
-10 -60 0
11 -60 0
60 12 61 0
-60 -61 0
-12 -61 0
61 62 63 0
-61 -63 0
-62 -63 0
-61 -62 64 0
61 -64 0
62 -64 0
63 64 65 0
-63 -65 0
-64 -65 0
59 -65 66 0
-59 -66 0
65 -66 0
66 64 67 0
-66 -67 0
-64 -67 0
12 -13 68 0
-12 -68 0
13 -68 0
68 14 69 0
-68 -69 0
-14 -69 0
69 70 71 0
-69 -71 0
-70 -71 0
-69 -70 72 0
69 -72 0
70 -72 0
71 72 73 0
-71 -73 0
-72 -73 0
67 -73 74 0
-67 -74 0
73 -74 0
74 72 75 0
-74 -75 0
-72 -75 0
14 -15 76 0
-14 -76 0
15 -76 0
76 16 77 0
-76 -77 0
-16 -77 0
77 78 79 0
-77 -79 0
-78 -79 0
-77 -78 80 0
77 -80 0
78 -80 0
79 80 81 0
-79 -81 0
-80 -81 0
75 -81 82 0
-75 -82 0
81 -82 0
82 80 83 0
-82 -83 0
-80 -83 0
16 -17 84 0
-16 -84 0
17 -84 0
84 18 85 0
-84 -85 0
-18 -85 0
85 86 87 0
-85 -87 0
-86 -87 0
-85 -86 88 0
85 -88 0
86 -88 0
87 88 89 0
-87 -89 0
-88 -89 0
-83 89 90 0
83 -90 0
-89 -90 0
83 -89 91 0
-83 -91 0
89 -91 0
90 91 92 0
-90 -92 0
-91 -92 0
-75 81 93 0
75 -93 0
-81 -93 0
93 82 94 0
-93 -94 0
-82 -94 0
-67 73 95 0
67 -95 0
-73 -95 0
95 74 96 0
-95 -96 0
-74 -96 0
-59 65 97 0
59 -97 0
-65 -97 0
97 66 98 0
-97 -98 0
-66 -98 0
47 49 99 0
-47 -99 0
-49 -99 0
99 50 100 0
-99 -100 0
-50 -100 0
48 6 101 0
-48 -101 0
-6 -101 0
-99 101 102 0
99 -102 0
-101 -102 0
100 102 103 0
-100 -103 0
-102 -103 0
-51 57 104 0
51 -104 0
-57 -104 0
104 58 105 0
-104 -105 0
-58 -105 0
-103 105 106 0
103 -106 0
-105 -106 0
98 -106 107 0
-98 -107 0
106 -107 0
96 -107 108 0
-96 -108 0
107 -108 0
94 -108 109 0
-94 -109 0
108 -109 0
92 -109 110 0
-92 -110 0
109 -110 0
41 -110 111 0
-41 -111 0
110 -111 0
-41 110 112 0
41 -112 0
-110 -112 0
111 112 113 0
-111 -113 0
-112 -113 0
91 88 114 0
-91 -114 0
-88 -114 0
-113 114 115 0
113 -115 0
-114 -115 0
113 -114 116 0
-113 -116 0
114 -116 0
115 116 117 0
-115 -117 0
-116 -117 0
31 -26 118 0
-31 -118 0
26 -118 0
118 22 119 0
-118 -119 0
-22 -119 0
119 -26 120 0
-119 -120 0
26 -120 0
120 23 121 0
-120 -121 0
-23 -121 0
-120 -23 122 0
120 -122 0
23 -122 0
121 122 123 0
-121 -123 0
-122 -123 0
-96 107 124 0
96 -124 0
-107 -124 0
124 108 125 0
-124 -125 0
-108 -125 0
123 125 126 0
-123 -126 0
-125 -126 0
-123 -125 127 0
123 -127 0
125 -127 0
126 127 128 0
-126 -128 0
-127 -128 0
-33 -34 129 0
33 -129 0
34 -129 0
129 35 130 0
-129 -130 0
-35 -130 0
-94 108 131 0
94 -131 0
-108 -131 0
131 109 132 0
-131 -132 0
-109 -132 0
-130 -132 133 0
130 -133 0
132 -133 0
-128 133 134 0
128 -134 0
-133 -134 0
35 -26 135 0
-35 -135 0
26 -135 0
135 -37 136 0
-135 -136 0
37 -136 0
-135 37 137 0
135 -137 0
-37 -137 0
136 137 138 0
-136 -138 0
-137 -138 0
-92 109 139 0
92 -139 0
-109 -139 0
139 110 140 0
-139 -140 0
-110 -140 0
-138 140 141 0
138 -141 0
-140 -141 0
-134 141 142 0
134 -142 0
-141 -142 0
-118 -22 143 0
118 -143 0
22 -143 0
143 119 144 0
-143 -144 0
-119 -144 0
-98 106 145 0
98 -145 0
-106 -145 0
145 107 146 0
-145 -146 0
-107 -146 0
144 146 147 0
-144 -147 0
-146 -147 0
-144 -146 148 0
144 -148 0
146 -148 0
147 148 149 0
-147 -149 0
-148 -149 0
29 -26 150 0
-29 -150 0
26 -150 0
150 -30 151 0
-150 -151 0
30 -151 0
-150 30 152 0
150 -152 0
-30 -152 0
151 152 153 0
-151 -153 0
-152 -153 0
103 -105 154 0
-103 -154 0
105 -154 0
154 106 155 0
-154 -155 0
-106 -155 0
153 -155 156 0
-153 -156 0
155 -156 0
-153 155 157 0
153 -157 0
-155 -157 0
156 157 158 0
-156 -158 0
-157 -158 0
101 49 159 0
-101 -159 0
-49 -159 0
159 25 160 0
-159 -160 0
-25 -160 0
-159 -25 161 0
159 -161 0
25 -161 0
160 161 162 0
-160 -162 0
-161 -162 0
-159 102 163 0
159 -163 0
-102 -163 0
163 103 164 0
-163 -164 0
-103 -164 0
-27 -28 165 0
27 -165 0
28 -165 0
165 29 166 0
-165 -166 0
-29 -166 0
164 -166 167 0
-164 -167 0
166 -167 0
-164 166 168 0
164 -168 0
-166 -168 0
167 168 169 0
-167 -169 0
-168 -169 0
-162 169 170 0
162 -170 0
-169 -170 0
-158 -170 171 0
158 -171 0
170 -171 0
-149 -171 172 0
149 -172 0
171 -172 0
130 132 173 0
-130 -173 0
-132 -173 0
-172 173 174 0
172 -174 0
-173 -174 0
138 -140 175 0
-138 -175 0
140 -175 0
-174 175 176 0
174 -176 0
-175 -176 0
-142 -176 177 0
142 -177 0
176 -177 0
117 -177 178 0
-117 -178 0
177 -178 0
178 0
